WARNING: for repeatability, setting FPU to use double precision
============================[ Problem Statistics ]=============================
|                                                                             |
|  Number of variables:         33791                                         |
|  Number of clauses:          479649                                         |
|  Parse time:                   0.21 s                                       |
|  Eliminated clauses:           0.03 Mb                                      |
|  Simplification time:          0.35 s                                       |
|                                                                             |
============================[ Search Statistics ]==============================
| Conflicts |          ORIGINAL         |          LEARNT          | Progress |
|           |    Vars  Clauses Literals |    Limit  Clauses Lit/Cl |          |
===============================================================================
|       100 |    4846    72653   199512 |    26639      100     43 | 81.223 % |
|       250 |    4846    72653   199512 |    29303      250     42 | 81.223 % |
|       475 |    4846    72653   199512 |    32233      475     34 | 81.223 % |
|       812 |    4846    72653   199512 |    35457      812     41 | 81.223 % |
|      1318 |    4846    72653   199512 |    39002     1318     40 | 81.223 % |
|      2077 |    4846    72653   199512 |    42903     2077     46 | 81.223 % |
===============================================================================
restarts              : 14
conflicts             : 2113           (3554 /sec)
decisions             : 25398          (0.00 % random) (42721 /sec)
propagations          : 170933         (287517 /sec)
conflict literals     : 103205         (5.10 % deleted)
Memory used           : 56.00 MB
CPU time              : 0.594515 s

SATISFIABLE
WARNING: for repeatability, setting FPU to use double precision
============================[ Problem Statistics ]=============================
|                                                                             |
|  Number of variables:         33791                                         |
|  Number of clauses:          479649                                         |
|  Parse time:                   0.15 s                                       |
|  Eliminated clauses:           0.03 Mb                                      |
|  Simplification time:          0.24 s                                       |
|                                                                             |
============================[ Search Statistics ]==============================
| Conflicts |          ORIGINAL         |          LEARNT          | Progress |
|           |    Vars  Clauses Literals |    Limit  Clauses Lit/Cl |          |
===============================================================================
|       100 |    4846    72653   199512 |    26639      100     43 | 81.223 % |
|       250 |    4846    72653   199512 |    29303      250     42 | 81.223 % |
|       475 |    4846    72653   199512 |    32233      475     34 | 81.223 % |
|       812 |    4846    72653   199512 |    35457      812     41 | 81.223 % |
|      1318 |    4846    72653   199512 |    39002     1318     40 | 81.223 % |
|      2077 |    4846    72653   199512 |    42903     2077     46 | 81.223 % |
===============================================================================
restarts              : 14
conflicts             : 2113           (5149 /sec)
decisions             : 25398          (0.00 % random) (61893 /sec)
propagations          : 170933         (416551 /sec)
conflict literals     : 103205         (5.10 % deleted)
Memory used           : 56.00 MB
CPU time              : 0.410353 s

SATISFIABLE
